c This is QMaxSAT 2017 based on 14.07
c This is Glucose 3.0
c This is MiniSat 2.2.0
c WARNING: for repeatability, setting FPU to use double precision
c card = mrwto, comp = 0, pmodel = 0, narr = 2, mct = 24, verb = 0
cr firstCPXsol 0 0 0
c top = 81479
c |  Number of variables:    1250                                             |
c |  Number of clauses:      27397                                            |
c |  Weight of hard clauses: 81479                                            |
c |  Number of soft clauses: 1196                                             |
c |  Number of unit soft clauses: 0                                           |
c |  Maximum Cardinality (by unit): 180344       (0           )               |
c last restart ## conflicts  :  3 317 
o 3828 | cpuTime 0.053209 s
c Sum of weights = 90172
c A number of soft clauses remained = 598
c MRWTO encoding for Pseudo-Boolean Constraints
c sizeMax=3828
c No.0 Divisor=16	generated by pow1
c No.1 Divisor=16	generated by pow1
c No.2 Divisor=16	generated by pow1
c p0= 16	p1= 16	p2= 16	
c number of digits = 4
c linkingVar[0].size = 16, linkingVar[1].size = 16, linkingVar[2].size = 15, linkingVar[3].size = 1, 
c Pseudo-Boolean Constraints: 15070 variables and 188021 clauses
c Sum of weights = 90172
c A number of soft clauses remained = 598
c MRWTO encoding for Pseudo-Boolean Constraints
c sizeMax=3828
c No.0 Divisor=16	generated by pow1
c No.1 Divisor=16	generated by pow1
c No.2 Divisor=16	generated by pow1
c p0= 16	p1= 16	p2= 16	
c number of digits = 4
c linkingVar[0].size = 16, linkingVar[1].size = 16, linkingVar[2].size = 15, linkingVar[3].size = 1, 
c Pseudo-Boolean Constraints: 15070 variables and 188021 clauses
c last restart ## conflicts  :  394 1843 
o 3250 | cpuTime 0.161788 s
c last restart ## conflicts  :  481 1540 
o 2609 | cpuTime 0.189428 s
s UNKNOWN
c Search is stopped by a limit (maybe time-limit)
cr positiVarArr: [ | 21(1->20) | 37(1->11) | 72(2->21) | 83(3->7) | 119(4->18) | 148(5->22) | 159(6->8) | 192(7->16) | 213(8->12) | 228(9->2) | 252(10->1) | 300(11->24) | 315(12->14) | 345(13->19) | 356(14->5) | 393(15->17) | 407(16->6) | 436(17->10) | 474(18->23) | 491(19->15) | 514(20->13) | 526(21->1) | 560(22->9) | 579(23->3) | 605(24->4) | ]
cr the 1-th chain: [ 1->20->13->19->15->17->10->1 ] (#non-depot=6) {#cumul.=7}
cr the 2-th chain: [ 1->11->24->4->18->23->3->7->16->6->8->12->14->5->22->9->2->21->1 ] (#non-depot=17) {#cumul.=24}
c Latest Answer = 0 by 3 loops
c restarts              : 65748
c conflicts             : 10260187       (2853 /sec)
c decisions             : 22922015       (0.00 % random) (6373 /sec)
c propagations          : 709491390      (197271 /sec)
c conflict literals     : 1429984146     (14.99 % deleted)
c Memory used           : 459.00 MB
c CPU time              : 3596.53 s
